NAME:15002
COMMENT: From "On the generation of Metric TSP instances with a large integrality gap by branch-and-cut" (Vercesi, Gualandi, Mastrolilli, Gambardella)
TYPE: TSP
DIMENSION: 15
EDGE_WEIGHT_TYPE: EXPLICIT
EDGE_WEIGHT_FORMAT: UPPER_ROW
EDGE_WEIGHT_SECTION
171 208 134 99 146 25 124 63 171 75 99 317 50 1 37 37 72 99 146 77 109 291 96 72 220 121 171 74 109 62 183 84 146 328 133 109 183 158 208 89 136 109 114 72 254 65 35 257 84 134 47 74 25 161 270 24 124 218 49 99 121 22 208 317 71 171 171 96 146 99 87 196 50 74 292 25 25 186 295 49 149 193 74 124 182 137 37 328 112 62 246 219 146 221 172 100 242 25 75 292 75 99 267 317 50 
EOF